set people := person1 person2 person3 ;
set jobs := jobs1 jobs2 jobs3 jobs4 jobs5 jobs6;
param cost: jobs1 jobs2 jobs3 jobs4 jobs5 jobs6 :=
person1 1 3 2 1 5 6
person2 3 1 5 6 1 2
person3 4 5 1 5 6 7

;